c A SAT instance generated from a 3-CNF formula that had 24 clauses and 8 variables
p cnf 8 24
1 7 -8 0
-1 3 -8 0
-7 2 -6 0
-2 3 4 0
-1 -5 2 0
-3 1 -5 0
3 8 -7 0
-3 -1 -8 0
5 8 -1 0
7 -6 -1 0
3 7 1 0
-6 -5 4 0
8 5 -6 0
-3 -8 -4 0
4 5 6 0
-2 3 1 0
-1 8 7 0
3 2 1 0
6 3 7 0
-6 3 -5 0
-5 8 -1 0
6 7 5 0
-1 3 -4 0
-6 4 -7 0
